\* WBM Problem *\
Maximize
Total_weights_of_Lselected_edges: 330 e_1_1 + 470 e_1_2 + 200 e_1_3
 + 350 e_2_1 + 450 e_2_2 + 200 e_2_3 + 225 e_3_1 + 375 e_3_2 + 400 e_3_3
Subject To
_C1: e_1_1 + e_1_2 + e_1_3 <= 1
_C10: e_1_2 + e_2_2 + e_3_2 <= 1
_C11: e_2_1 + e_2_2 + e_2_3 <= 1
_C12: e_1_3 + e_2_3 + e_3_3 <= 1
_C13: e_3_1 + e_3_2 + e_3_3 <= 1
_C14: e_1_1 + e_2_1 + e_3_1 <= 1
_C15: e_3_1 + e_3_2 + e_3_3 <= 1
_C16: e_1_2 + e_2_2 + e_3_2 <= 1
_C17: e_3_1 + e_3_2 + e_3_3 <= 1
_C18: e_1_3 + e_2_3 + e_3_3 <= 1
_C2: e_1_1 + e_2_1 + e_3_1 <= 1
_C3: e_1_1 + e_1_2 + e_1_3 <= 1
_C4: e_1_2 + e_2_2 + e_3_2 <= 1
_C5: e_1_1 + e_1_2 + e_1_3 <= 1
_C6: e_1_3 + e_2_3 + e_3_3 <= 1
_C7: e_2_1 + e_2_2 + e_2_3 <= 1
_C8: e_1_1 + e_2_1 + e_3_1 <= 1
_C9: e_2_1 + e_2_2 + e_2_3 <= 1
Binaries
e_1_1
e_1_2
e_1_3
e_2_1
e_2_2
e_2_3
e_3_1
e_3_2
e_3_3
End
